NAME          
ROWS
 N  OBJ
 L  c1
 L  c2
 L  c3
 L  c4
 L  c5
COLUMNS
    MARKER    'MARKER'                 'INTORG'
    x[1]      c1        303
    x[1]      c2        475
    x[1]      c3        780
    x[1]      c4        621
    x[1]      c5        326
    x[1]      OBJ       -533
    x[2]      c1        240
    x[2]      c2        114
    x[2]      c3        714
    x[2]      c4        384
    x[2]      c5        477
    x[2]      OBJ       -404
    x[3]      c1        576
    x[3]      c2        711
    x[3]      c3        508
    x[3]      c4        903
    x[3]      c5        63
    x[3]      OBJ       -127
    x[4]      c1        822
    x[4]      c2        409
    x[4]      c3        385
    x[4]      c4        951
    x[4]      c5        4
    x[4]      OBJ       -197
    x[5]      c1        448
    x[5]      c2        536
    x[5]      c3        204
    x[5]      c4        859
    x[5]      c5        931
    x[5]      OBJ       -500
    x[6]      c1        575
    x[6]      c2        610
    x[6]      c3        937
    x[6]      c4        783
    x[6]      c5        253
    x[6]      OBJ       -586
    x[7]      c1        169
    x[7]      c2        134
    x[7]      c3        109
    x[7]      c4        633
    x[7]      c5        207
    x[7]      OBJ       -431
    x[8]      c1        849
    x[8]      c2        204
    x[8]      c3        203
    x[8]      c4        913
    x[8]      c5        203
    x[8]      OBJ       -132
    x[9]      c1        762
    x[9]      c2        95
    x[9]      c3        631
    x[9]      c4        855
    x[9]      c5        143
    x[9]      OBJ       -606
    x[10]     c1        116
    x[10]     c2        184
    x[10]     c3        214
    x[10]     c4        734
    x[10]     c5        388
    x[10]     OBJ       -890
    x[11]     c1        645
    x[11]     c2        232
    x[11]     c3        91
    x[11]     c4        207
    x[11]     c5        477
    x[11]     OBJ       -333
    x[12]     c1        925
    x[12]     c2        578
    x[12]     c3        894
    x[12]     c4        731
    x[12]     c5        322
    x[12]     OBJ       -65
    x[13]     c1        240
    x[13]     c2        619
    x[13]     c3        336
    x[13]     c4        150
    x[13]     c5        476
    x[13]     OBJ       -477
    x[14]     c1        705
    x[14]     c2        358
    x[14]     c3        744
    x[14]     c4        272
    x[14]     c5        45
    x[14]     OBJ       -447
    x[15]     c1        568
    x[15]     c2        450
    x[15]     c3        571
    x[15]     c4        338
    x[15]     c5        587
    x[15]     OBJ       -56
    x[16]     c1        215
    x[16]     c2        592
    x[16]     c3        123
    x[16]     c4        86
    x[16]     c5        105
    x[16]     OBJ       -704
    x[17]     c1        396
    x[17]     c2        19
    x[17]     c3        940
    x[17]     c4        745
    x[17]     c5        105
    x[17]     OBJ       -240
    x[18]     c1        656
    x[18]     c2        134
    x[18]     c3        28
    x[18]     c4        525
    x[18]     c5        728
    x[18]     OBJ       -402
    x[19]     c1        54
    x[19]     c2        819
    x[19]     c3        103
    x[19]     c4        37
    x[19]     c5        634
    x[19]     OBJ       -454
    x[20]     c1        926
    x[20]     c2        342
    x[20]     c3        957
    x[20]     c4        648
    x[20]     c5        159
    x[20]     OBJ       -244
    x[21]     c1        599
    x[21]     c2        660
    x[21]     c3        67
    x[21]     c4        941
    x[21]     c5        387
    x[21]     OBJ       -251
    x[22]     c1        142
    x[22]     c2        799
    x[22]     c3        980
    x[22]     c4        472
    x[22]     c5        160
    x[22]     OBJ       -235
    x[23]     c1        650
    x[23]     c2        469
    x[23]     c3        927
    x[23]     c4        144
    x[23]     c5        129
    x[23]     OBJ       -960
    x[24]     c1        874
    x[24]     c2        253
    x[24]     c3        923
    x[24]     c4        723
    x[24]     c5        541
    x[24]     OBJ       -868
    x[25]     c1        408
    x[25]     c2        233
    x[25]     c3        552
    x[25]     c4        93
    x[25]     c5        238
    x[25]     OBJ       -1
    x[26]     c1        236
    x[26]     c2        694
    x[26]     c3        94
    x[26]     c4        294
    x[26]     c5        813
    x[26]     OBJ       -602
    x[27]     c1        889
    x[27]     c2        205
    x[27]     c3        480
    x[27]     c4        653
    x[27]     c5        675
    x[27]     OBJ       -23
    x[28]     c1        108
    x[28]     c2        967
    x[28]     c3        904
    x[28]     c4        458
    x[28]     c5        598
    x[28]     OBJ       -524
    x[29]     c1        436
    x[29]     c2        143
    x[29]     c3        904
    x[29]     c4        194
    x[29]     c5        935
    x[29]     OBJ       -871
    x[30]     c1        931
    x[30]     c2        649
    x[30]     c3        417
    x[30]     c4        444
    x[30]     c5        361
    x[30]     OBJ       -435
    x[31]     c1        972
    x[31]     c2        472
    x[31]     c3        103
    x[31]     c4        15
    x[31]     c5        631
    x[31]     OBJ       -896
    x[32]     c1        751
    x[32]     c2        559
    x[32]     c3        490
    x[32]     c4        780
    x[32]     c5        810
    x[32]     OBJ       -586
    x[33]     c1        246
    x[33]     c2        1
    x[33]     c3        961
    x[33]     c4        305
    x[33]     c5        221
    x[33]     OBJ       -454
    x[34]     c1        812
    x[34]     c2        21
    x[34]     c3        131
    x[34]     c4        351
    x[34]     c5        822
    x[34]     OBJ       -681
    x[35]     c1        667
    x[35]     c2        922
    x[35]     c3        854
    x[35]     c4        578
    x[35]     c5        328
    x[35]     OBJ       -199
RHS
    rhs       c1        9456
    rhs       c2        7331
    rhs       c3        9130
    rhs       c4        8910
    rhs       c5        7141
RANGES
BOUNDS
 BV bounds    x[1]
 BV bounds    x[2]
 BV bounds    x[3]
 BV bounds    x[4]
 BV bounds    x[5]
 BV bounds    x[6]
 BV bounds    x[7]
 BV bounds    x[8]
 BV bounds    x[9]
 BV bounds    x[10]
 BV bounds    x[11]
 BV bounds    x[12]
 BV bounds    x[13]
 BV bounds    x[14]
 BV bounds    x[15]
 BV bounds    x[16]
 BV bounds    x[17]
 BV bounds    x[18]
 BV bounds    x[19]
 BV bounds    x[20]
 BV bounds    x[21]
 BV bounds    x[22]
 BV bounds    x[23]
 BV bounds    x[24]
 BV bounds    x[25]
 BV bounds    x[26]
 BV bounds    x[27]
 BV bounds    x[28]
 BV bounds    x[29]
 BV bounds    x[30]
 BV bounds    x[31]
 BV bounds    x[32]
 BV bounds    x[33]
 BV bounds    x[34]
 BV bounds    x[35]
ENDATA
